set VV := 0 1 2 3 4 5 6 7 8 9 10 ;
set VS := 0 1 2 3 4 5 6 7 8 9 10 11 12 13 14 15 16 17 18 19 20 21 22 23 24 25 26 ;
param cv := 
0 13
1 15
2 11
3 13
4 24
5 20
6 25
7 13
8 25
9 24
10 16
;
param cs := 
0 29
1 27
2 22
3 30
4 38
5 37
6 38
7 20
8 23
9 38
10 22
11 23
12 30
13 21
14 39
15 34
16 32
17 39
18 28
19 38
20 26
21 37
22 24
23 28
24 27
25 29
26 38
;
param bv:	 0 1 2 3 4 5 6 7 8 9 10 := 
		0 0 22 0 0 0 0 0 21 0 0 0 
		1 0 0 0 0 0 0 0 0 0 0 21 
		2 0 0 0 0 0 10 0 17 0 0 0 
		3 0 0 0 0 0 0 16 0 0 0 0 
		4 0 0 0 0 0 16 0 0 0 0 0 
		5 0 0 0 0 0 0 0 0 0 0 0 
		6 0 0 0 0 0 0 0 0 0 24 0 
		7 0 0 0 0 0 0 0 0 0 0 0 
		8 0 0 0 0 0 0 0 0 0 18 0 
		9 0 0 0 0 0 0 0 0 0 0 13 
		10 0 0 0 0 0 0 0 0 0 0 0 
;
param bs:	 0 1 2 3 4 5 6 7 8 9 10 11 12 13 14 15 16 17 18 19 20 21 22 23 24 25 26 := 
		0 0 22 0 0 20 0 0 25 0 0 0 0 0 0 0 35 0 0 0 0 0 34 0 0 0 0 0 
		1 22 0 26 0 0 0 0 0 0 0 32 0 0 0 0 0 0 0 0 30 0 0 0 0 0 0 0 
		2 0 26 0 0 0 0 0 0 0 0 0 0 0 0 0 31 0 0 0 25 28 0 0 0 0 0 0 
		3 0 0 0 0 0 40 0 0 0 0 0 0 0 0 0 0 0 0 0 0 0 0 0 0 0 0 0 
		4 20 0 0 0 0 29 0 0 0 0 27 0 0 0 0 0 0 0 0 0 0 0 38 23 0 0 0 
		5 0 0 0 40 29 0 0 36 0 0 0 0 0 0 0 0 0 0 0 0 0 0 0 0 0 0 0 
		6 0 0 0 0 0 0 0 0 0 21 0 0 39 0 22 0 0 0 0 0 0 0 0 0 0 0 0 
		7 25 0 0 0 0 36 0 0 0 0 0 0 0 0 20 0 0 34 0 30 0 0 0 32 0 0 0 
		8 0 0 0 0 0 0 0 0 0 0 0 0 0 0 0 0 0 0 0 28 0 34 27 28 30 0 0 
		9 0 0 0 0 0 0 21 0 0 0 0 0 31 0 0 0 0 0 0 0 0 0 0 0 0 0 0 
		10 0 32 0 0 27 0 0 0 0 0 0 0 0 0 0 0 0 0 0 0 0 0 0 0 0 0 0 
		11 0 0 0 0 0 0 0 0 0 0 0 0 40 0 0 0 0 0 0 0 0 0 0 0 0 20 0 
		12 0 0 0 0 0 0 39 0 0 31 0 40 0 0 0 0 0 0 0 0 0 0 0 0 0 0 0 
		13 0 0 0 0 0 0 0 0 0 0 0 0 0 0 0 0 21 0 0 0 34 0 0 0 0 0 0 
		14 0 0 0 0 0 0 22 20 0 0 0 0 0 0 0 36 0 0 33 0 0 0 25 36 0 29 0 
		15 35 0 31 0 0 0 0 0 0 0 0 0 0 0 36 0 0 0 0 0 25 0 0 0 0 0 0 
		16 0 0 0 0 0 0 0 0 0 0 0 0 0 21 0 0 0 0 0 0 40 0 0 23 0 0 0 
		17 0 0 0 0 0 0 0 34 0 0 0 0 0 0 0 0 0 0 0 0 0 0 0 0 0 0 0 
		18 0 0 0 0 0 0 0 0 0 0 0 0 0 0 33 0 0 0 0 0 0 20 38 38 0 0 0 
		19 0 30 25 0 0 0 0 30 28 0 0 0 0 0 0 0 0 0 0 0 23 20 0 38 0 0 0 
		20 0 0 28 0 0 0 0 0 0 0 0 0 0 34 0 25 40 0 0 23 0 0 0 0 0 0 34 
		21 34 0 0 0 0 0 0 0 34 0 0 0 0 0 0 0 0 0 20 20 0 0 35 0 0 0 0 
		22 0 0 0 0 38 0 0 0 27 0 0 0 0 0 25 0 0 0 38 0 0 35 0 0 0 0 0 
		23 0 0 0 0 23 0 0 32 28 0 0 0 0 0 36 0 23 0 38 38 0 0 0 0 0 0 0 
		24 0 0 0 0 0 0 0 0 30 0 0 0 0 0 0 0 0 0 0 0 0 0 0 0 0 34 0 
		25 0 0 0 0 0 0 0 0 0 0 0 20 0 0 29 0 0 0 0 0 0 0 0 0 34 0 0 
		26 0 0 0 0 0 0 0 0 0 0 0 0 0 0 0 0 0 0 0 0 34 0 0 0 0 0 0 
;
